Maximize
  2.2822481364391918e-04 Z_162_0_0 + 0.00122100556091759 Z_162_0_1
   + 0.5191803765089164 Z_162_0_2 + 3.7110436793464811e-04 Z_162_0_3
   + 0.3789992887485875 Z_162_0_4 + 0.000183288 Z_448_0_0
   + 0.00202986306637417 Z_448_0_1 + 0.8894672616899824 Z_448_0_2
   + 0.00203987554490994 Z_448_0_3 + 0.00627971177292405 Z_448_0_4
   + 3.9256414092993572e-04 Z_378_0_0 + 0.0019745723799495 Z_378_0_1
   + 0.8546448361689402 Z_378_0_2 + 0.00642733930749142 Z_378_0_3
   + 0.0365606880026891 Z_378_0_4
Subject To
 constraint1_1620: Z_162_0_0 + Z_162_0_1 + Z_162_0_2 + Z_162_0_3
   + Z_162_0_4 <= 1
 constraint1_4480: Z_448_0_0 + Z_448_0_1 + Z_448_0_2 + Z_448_0_3
   + Z_448_0_4 <= 1
 constraint1_3780: Z_378_0_0 + Z_378_0_1 + Z_378_0_2 + Z_378_0_3
   + Z_378_0_4 <= 1
 constraint2_1620: Z_162_0_0 <= 1
 constraint2_1621: Z_162_0_1 <= 1
 constraint2_1622: Z_162_0_2 <= 1
 constraint2_1623: Z_162_0_3 <= 1
 constraint2_4480: Z_448_0_0 <= 1
 constraint2_4481: Z_448_0_1 <= 1
 constraint2_4482: Z_448_0_2 <= 1
 constraint2_4483: Z_448_0_3 <= 1
 constraint2_3780: Z_378_0_0 <= 1
 constraint2_3781: Z_378_0_1 <= 1
 constraint2_3782: Z_378_0_2 <= 1
 constraint2_3783: Z_378_0_3 <= 1
Bounds
Binaries
 Z_162_0_0 Z_162_0_1 Z_162_0_2 Z_162_0_3 Z_162_0_4 Z_448_0_0 Z_448_0_1
 Z_448_0_2 Z_448_0_3 Z_448_0_4 Z_378_0_0 Z_378_0_1 Z_378_0_2 Z_378_0_3
 Z_378_0_4
End
